# Solution for model VRPSPD_var
# Objective value = 2624.473
X_0,0,1.0 0
X_0,0,2.0 0
X_0,0,3.0 0
X_0,0,4.0 0
X_0,0,5.0 0
X_0,0,6.0 0
X_0,0,7.0 0
X_0,0,8.0 0
X_0,0,9.0 0
X_0,0,10.0 0
X_0,1,1.0 0
X_0,1,2.0 0
X_0,1,3.0 0
X_0,1,4.0 0
X_0,1,5.0 0
X_0,1,6.0 0
X_0,1,7.0 0
X_0,1,8.0 0
X_0,1,9.0 0
X_0,1,10.0 0
X_0,2,1.0 0
X_0,2,2.0 0
X_0,2,3.0 0
X_0,2,4.0 0
X_0,2,5.0 0
X_0,2,6.0 0
X_0,2,7.0 0
X_0,2,8.0 0
X_0,2,9.0 0
X_0,2,10.0 0
X_0,3,1.0 0
X_0,3,2.0 0
X_0,3,3.0 0
X_0,3,4.0 0
X_0,3,5.0 0
X_0,3,6.0 0
X_0,3,7.0 0
X_0,3,8.0 0
X_0,3,9.0 0
X_0,3,10.0 0
X_0,4,1.0 0
X_0,4,2.0 0
X_0,4,3.0 0
X_0,4,4.0 0
X_0,4,5.0 0
X_0,4,6.0 0
X_0,4,7.0 0
X_0,4,8.0 0
X_0,4,9.0 0
X_0,4,10.0 0
X_0,5,1.0 0
X_0,5,2.0 0
X_0,5,3.0 0
X_0,5,4.0 0
X_0,5,5.0 0
X_0,5,6.0 0
X_0,5,7.0 0
X_0,5,8.0 0
X_0,5,9.0 0
X_0,5,10.0 0
X_0,6,1.0 0
X_0,6,2.0 0
X_0,6,3.0 0
X_0,6,4.0 0
X_0,6,5.0 0
X_0,6,6.0 0
X_0,6,7.0 0
X_0,6,8.0 0
X_0,6,9.0 0
X_0,6,10.0 0
X_0,7,1.0 0
X_0,7,2.0 0
X_0,7,3.0 0
X_0,7,4.0 0
X_0,7,5.0 0
X_0,7,6.0 0
X_0,7,7.0 0
X_0,7,8.0 0
X_0,7,9.0 0
X_0,7,10.0 0
X_0,8,1.0 0
X_0,8,2.0 0
X_0,8,3.0 0
X_0,8,4.0 0
X_0,8,5.0 0
X_0,8,6.0 0
X_0,8,7.0 0
X_0,8,8.0 0
X_0,8,9.0 0
X_0,8,10.0 0
X_0,9,1.0 0
X_0,9,2.0 0
X_0,9,3.0 0
X_0,9,4.0 0
X_0,9,5.0 0
X_0,9,6.0 0
X_0,9,7.0 0
X_0,9,8.0 0
X_0,9,9.0 0
X_0,9,10.0 0
X_0,10,1.0 0
X_0,10,2.0 0
X_0,10,3.0 0
X_0,10,4.0 0
X_0,10,5.0 1
X_0,10,6.0 0
X_0,10,7.0 0
X_0,10,8.0 0
X_0,10,9.0 0
X_0,10,10.0 0
X_0,11,1.0 0
X_0,11,2.0 0
X_0,11,3.0 0
X_0,11,4.0 0
X_0,11,5.0 0
X_0,11,6.0 0
X_0,11,7.0 1
X_0,11,8.0 0
X_0,11,9.0 0
X_0,11,10.0 0
X_0,12,1.0 0
X_0,12,2.0 0
X_0,12,3.0 0
X_0,12,4.0 0
X_0,12,5.0 0
X_0,12,6.0 0
X_0,12,7.0 0
X_0,12,8.0 0
X_0,12,9.0 0
X_0,12,10.0 0
X_0,13,1.0 0
X_0,13,2.0 0
X_0,13,3.0 0
X_0,13,4.0 0
X_0,13,5.0 0
X_0,13,6.0 1
X_0,13,7.0 0
X_0,13,8.0 0
X_0,13,9.0 0
X_0,13,10.0 0
X_1,0,1.0 0
X_1,0,2.0 0
X_1,0,3.0 0
X_1,0,4.0 0
X_1,0,5.0 0
X_1,0,6.0 1
X_1,0,7.0 0
X_1,0,8.0 0
X_1,0,9.0 0
X_1,0,10.0 0
X_1,1,1.0 0
X_1,1,2.0 0
X_1,1,3.0 0
X_1,1,4.0 0
X_1,1,5.0 0
X_1,1,6.0 0
X_1,1,7.0 0
X_1,1,8.0 0
X_1,1,9.0 0
X_1,1,10.0 0
X_1,2,1.0 0
X_1,2,2.0 0
X_1,2,3.0 0
X_1,2,4.0 0
X_1,2,5.0 0
X_1,2,6.0 0
X_1,2,7.0 0
X_1,2,8.0 0
X_1,2,9.0 0
X_1,2,10.0 0
X_1,3,1.0 0
X_1,3,2.0 0
X_1,3,3.0 0
X_1,3,4.0 0
X_1,3,5.0 0
X_1,3,6.0 0
X_1,3,7.0 0
X_1,3,8.0 0
X_1,3,9.0 0
X_1,3,10.0 0
X_1,4,1.0 0
X_1,4,2.0 0
X_1,4,3.0 0
X_1,4,4.0 0
X_1,4,5.0 0
X_1,4,6.0 0
X_1,4,7.0 0
X_1,4,8.0 0
X_1,4,9.0 0
X_1,4,10.0 0
X_1,5,1.0 0
X_1,5,2.0 0
X_1,5,3.0 0
X_1,5,4.0 0
X_1,5,5.0 0
X_1,5,6.0 0
X_1,5,7.0 0
X_1,5,8.0 0
X_1,5,9.0 0
X_1,5,10.0 0
X_1,6,1.0 0
X_1,6,2.0 0
X_1,6,3.0 0
X_1,6,4.0 0
X_1,6,5.0 0
X_1,6,6.0 0
X_1,6,7.0 0
X_1,6,8.0 0
X_1,6,9.0 0
X_1,6,10.0 0
X_1,7,1.0 0
X_1,7,2.0 0
X_1,7,3.0 0
X_1,7,4.0 0
X_1,7,5.0 0
X_1,7,6.0 0
X_1,7,7.0 0
X_1,7,8.0 0
X_1,7,9.0 0
X_1,7,10.0 0
X_1,8,1.0 0
X_1,8,2.0 0
X_1,8,3.0 0
X_1,8,4.0 0
X_1,8,5.0 0
X_1,8,6.0 0
X_1,8,7.0 0
X_1,8,8.0 0
X_1,8,9.0 0
X_1,8,10.0 0
X_1,9,1.0 0
X_1,9,2.0 0
X_1,9,3.0 0
X_1,9,4.0 0
X_1,9,5.0 0
X_1,9,6.0 0
X_1,9,7.0 0
X_1,9,8.0 0
X_1,9,9.0 0
X_1,9,10.0 0
X_1,10,1.0 0
X_1,10,2.0 0
X_1,10,3.0 0
X_1,10,4.0 0
X_1,10,5.0 0
X_1,10,6.0 0
X_1,10,7.0 0
X_1,10,8.0 0
X_1,10,9.0 0
X_1,10,10.0 0
X_1,11,1.0 0
X_1,11,2.0 0
X_1,11,3.0 0
X_1,11,4.0 0
X_1,11,5.0 0
X_1,11,6.0 0
X_1,11,7.0 0
X_1,11,8.0 0
X_1,11,9.0 0
X_1,11,10.0 0
X_1,12,1.0 0
X_1,12,2.0 0
X_1,12,3.0 0
X_1,12,4.0 0
X_1,12,5.0 0
X_1,12,6.0 0
X_1,12,7.0 0
X_1,12,8.0 0
X_1,12,9.0 0
X_1,12,10.0 0
X_1,13,1.0 0
X_1,13,2.0 0
X_1,13,3.0 0
X_1,13,4.0 0
X_1,13,5.0 0
X_1,13,6.0 0
X_1,13,7.0 0
X_1,13,8.0 0
X_1,13,9.0 0
X_1,13,10.0 0
X_2,0,1.0 0
X_2,0,2.0 0
X_2,0,3.0 0
X_2,0,4.0 0
X_2,0,5.0 0
X_2,0,6.0 0
X_2,0,7.0 0
X_2,0,8.0 0
X_2,0,9.0 0
X_2,0,10.0 0
X_2,1,1.0 0
X_2,1,2.0 0
X_2,1,3.0 0
X_2,1,4.0 0
X_2,1,5.0 0
X_2,1,6.0 1
X_2,1,7.0 0
X_2,1,8.0 0
X_2,1,9.0 0
X_2,1,10.0 0
X_2,2,1.0 0
X_2,2,2.0 0
X_2,2,3.0 0
X_2,2,4.0 0
X_2,2,5.0 0
X_2,2,6.0 0
X_2,2,7.0 0
X_2,2,8.0 0
X_2,2,9.0 0
X_2,2,10.0 0
X_2,3,1.0 0
X_2,3,2.0 0
X_2,3,3.0 0
X_2,3,4.0 0
X_2,3,5.0 0
X_2,3,6.0 0
X_2,3,7.0 0
X_2,3,8.0 0
X_2,3,9.0 0
X_2,3,10.0 0
X_2,4,1.0 0
X_2,4,2.0 0
X_2,4,3.0 0
X_2,4,4.0 0
X_2,4,5.0 0
X_2,4,6.0 0
X_2,4,7.0 0
X_2,4,8.0 0
X_2,4,9.0 0
X_2,4,10.0 0
X_2,5,1.0 0
X_2,5,2.0 0
X_2,5,3.0 0
X_2,5,4.0 0
X_2,5,5.0 0
X_2,5,6.0 0
X_2,5,7.0 0
X_2,5,8.0 0
X_2,5,9.0 0
X_2,5,10.0 0
X_2,6,1.0 0
X_2,6,2.0 0
X_2,6,3.0 0
X_2,6,4.0 0
X_2,6,5.0 0
X_2,6,6.0 0
X_2,6,7.0 0
X_2,6,8.0 0
X_2,6,9.0 0
X_2,6,10.0 0
X_2,7,1.0 0
X_2,7,2.0 0
X_2,7,3.0 0
X_2,7,4.0 0
X_2,7,5.0 0
X_2,7,6.0 0
X_2,7,7.0 0
X_2,7,8.0 0
X_2,7,9.0 0
X_2,7,10.0 0
X_2,8,1.0 0
X_2,8,2.0 0
X_2,8,3.0 0
X_2,8,4.0 0
X_2,8,5.0 0
X_2,8,6.0 0
X_2,8,7.0 0
X_2,8,8.0 0
X_2,8,9.0 0
X_2,8,10.0 0
X_2,9,1.0 0
X_2,9,2.0 0
X_2,9,3.0 0
X_2,9,4.0 0
X_2,9,5.0 0
X_2,9,6.0 0
X_2,9,7.0 0
X_2,9,8.0 0
X_2,9,9.0 0
X_2,9,10.0 0
X_2,10,1.0 0
X_2,10,2.0 0
X_2,10,3.0 0
X_2,10,4.0 0
X_2,10,5.0 0
X_2,10,6.0 0
X_2,10,7.0 0
X_2,10,8.0 0
X_2,10,9.0 0
X_2,10,10.0 0
X_2,11,1.0 0
X_2,11,2.0 0
X_2,11,3.0 0
X_2,11,4.0 0
X_2,11,5.0 0
X_2,11,6.0 0
X_2,11,7.0 0
X_2,11,8.0 0
X_2,11,9.0 0
X_2,11,10.0 0
X_2,12,1.0 0
X_2,12,2.0 0
X_2,12,3.0 0
X_2,12,4.0 0
X_2,12,5.0 0
X_2,12,6.0 0
X_2,12,7.0 0
X_2,12,8.0 0
X_2,12,9.0 0
X_2,12,10.0 0
X_2,13,1.0 0
X_2,13,2.0 0
X_2,13,3.0 0
X_2,13,4.0 0
X_2,13,5.0 0
X_2,13,6.0 0
X_2,13,7.0 0
X_2,13,8.0 0
X_2,13,9.0 0
X_2,13,10.0 0
X_3,0,1.0 0
X_3,0,2.0 0
X_3,0,3.0 0
X_3,0,4.0 0
X_3,0,5.0 0
X_3,0,6.0 0
X_3,0,7.0 0
X_3,0,8.0 0
X_3,0,9.0 0
X_3,0,10.0 0
X_3,1,1.0 0
X_3,1,2.0 0
X_3,1,3.0 0
X_3,1,4.0 0
X_3,1,5.0 0
X_3,1,6.0 0
X_3,1,7.0 0
X_3,1,8.0 0
X_3,1,9.0 0
X_3,1,10.0 0
X_3,2,1.0 0
X_3,2,2.0 0
X_3,2,3.0 0
X_3,2,4.0 0
X_3,2,5.0 0
X_3,2,6.0 0
X_3,2,7.0 0
X_3,2,8.0 0
X_3,2,9.0 0
X_3,2,10.0 0
X_3,3,1.0 0
X_3,3,2.0 0
X_3,3,3.0 0
X_3,3,4.0 0
X_3,3,5.0 0
X_3,3,6.0 0
X_3,3,7.0 0
X_3,3,8.0 0
X_3,3,9.0 0
X_3,3,10.0 0
X_3,4,1.0 0
X_3,4,2.0 0
X_3,4,3.0 0
X_3,4,4.0 0
X_3,4,5.0 0
X_3,4,6.0 0
X_3,4,7.0 1
X_3,4,8.0 0
X_3,4,9.0 0
X_3,4,10.0 0
X_3,5,1.0 0
X_3,5,2.0 0
X_3,5,3.0 0
X_3,5,4.0 0
X_3,5,5.0 0
X_3,5,6.0 0
X_3,5,7.0 0
X_3,5,8.0 0
X_3,5,9.0 0
X_3,5,10.0 0
X_3,6,1.0 0
X_3,6,2.0 0
X_3,6,3.0 0
X_3,6,4.0 0
X_3,6,5.0 0
X_3,6,6.0 0
X_3,6,7.0 0
X_3,6,8.0 0
X_3,6,9.0 0
X_3,6,10.0 0
X_3,7,1.0 0
X_3,7,2.0 0
X_3,7,3.0 0
X_3,7,4.0 0
X_3,7,5.0 0
X_3,7,6.0 0
X_3,7,7.0 0
X_3,7,8.0 0
X_3,7,9.0 0
X_3,7,10.0 0
X_3,8,1.0 0
X_3,8,2.0 0
X_3,8,3.0 0
X_3,8,4.0 0
X_3,8,5.0 0
X_3,8,6.0 0
X_3,8,7.0 0
X_3,8,8.0 0
X_3,8,9.0 0
X_3,8,10.0 0
X_3,9,1.0 0
X_3,9,2.0 0
X_3,9,3.0 0
X_3,9,4.0 0
X_3,9,5.0 0
X_3,9,6.0 0
X_3,9,7.0 0
X_3,9,8.0 0
X_3,9,9.0 0
X_3,9,10.0 0
X_3,10,1.0 0
X_3,10,2.0 0
X_3,10,3.0 0
X_3,10,4.0 0
X_3,10,5.0 0
X_3,10,6.0 0
X_3,10,7.0 0
X_3,10,8.0 0
X_3,10,9.0 0
X_3,10,10.0 0
X_3,11,1.0 0
X_3,11,2.0 0
X_3,11,3.0 0
X_3,11,4.0 0
X_3,11,5.0 0
X_3,11,6.0 0
X_3,11,7.0 0
X_3,11,8.0 0
X_3,11,9.0 0
X_3,11,10.0 0
X_3,12,1.0 0
X_3,12,2.0 0
X_3,12,3.0 0
X_3,12,4.0 0
X_3,12,5.0 0
X_3,12,6.0 0
X_3,12,7.0 0
X_3,12,8.0 0
X_3,12,9.0 0
X_3,12,10.0 0
X_3,13,1.0 0
X_3,13,2.0 0
X_3,13,3.0 0
X_3,13,4.0 0
X_3,13,5.0 0
X_3,13,6.0 0
X_3,13,7.0 0
X_3,13,8.0 0
X_3,13,9.0 0
X_3,13,10.0 0
X_4,0,1.0 0
X_4,0,2.0 0
X_4,0,3.0 0
X_4,0,4.0 0
X_4,0,5.0 0
X_4,0,6.0 0
X_4,0,7.0 0
X_4,0,8.0 0
X_4,0,9.0 0
X_4,0,10.0 0
X_4,1,1.0 0
X_4,1,2.0 0
X_4,1,3.0 0
X_4,1,4.0 0
X_4,1,5.0 0
X_4,1,6.0 0
X_4,1,7.0 0
X_4,1,8.0 0
X_4,1,9.0 0
X_4,1,10.0 0
X_4,2,1.0 0
X_4,2,2.0 0
X_4,2,3.0 0
X_4,2,4.0 0
X_4,2,5.0 0
X_4,2,6.0 0
X_4,2,7.0 0
X_4,2,8.0 0
X_4,2,9.0 0
X_4,2,10.0 0
X_4,3,1.0 0
X_4,3,2.0 0
X_4,3,3.0 0
X_4,3,4.0 0
X_4,3,5.0 0
X_4,3,6.0 0
X_4,3,7.0 0
X_4,3,8.0 0
X_4,3,9.0 0
X_4,3,10.0 0
X_4,4,1.0 0
X_4,4,2.0 0
X_4,4,3.0 0
X_4,4,4.0 0
X_4,4,5.0 0
X_4,4,6.0 0
X_4,4,7.0 0
X_4,4,8.0 0
X_4,4,9.0 0
X_4,4,10.0 0
X_4,5,1.0 0
X_4,5,2.0 0
X_4,5,3.0 0
X_4,5,4.0 0
X_4,5,5.0 0
X_4,5,6.0 0
X_4,5,7.0 1
X_4,5,8.0 0
X_4,5,9.0 0
X_4,5,10.0 0
X_4,6,1.0 0
X_4,6,2.0 0
X_4,6,3.0 0
X_4,6,4.0 0
X_4,6,5.0 0
X_4,6,6.0 0
X_4,6,7.0 0
X_4,6,8.0 0
X_4,6,9.0 0
X_4,6,10.0 0
X_4,7,1.0 0
X_4,7,2.0 0
X_4,7,3.0 0
X_4,7,4.0 0
X_4,7,5.0 0
X_4,7,6.0 0
X_4,7,7.0 0
X_4,7,8.0 0
X_4,7,9.0 0
X_4,7,10.0 0
X_4,8,1.0 0
X_4,8,2.0 0
X_4,8,3.0 0
X_4,8,4.0 0
X_4,8,5.0 0
X_4,8,6.0 0
X_4,8,7.0 0
X_4,8,8.0 0
X_4,8,9.0 0
X_4,8,10.0 0
X_4,9,1.0 0
X_4,9,2.0 0
X_4,9,3.0 0
X_4,9,4.0 0
X_4,9,5.0 0
X_4,9,6.0 0
X_4,9,7.0 0
X_4,9,8.0 0
X_4,9,9.0 0
X_4,9,10.0 0
X_4,10,1.0 0
X_4,10,2.0 0
X_4,10,3.0 0
X_4,10,4.0 0
X_4,10,5.0 0
X_4,10,6.0 0
X_4,10,7.0 0
X_4,10,8.0 0
X_4,10,9.0 0
X_4,10,10.0 0
X_4,11,1.0 0
X_4,11,2.0 0
X_4,11,3.0 0
X_4,11,4.0 0
X_4,11,5.0 0
X_4,11,6.0 0
X_4,11,7.0 0
X_4,11,8.0 0
X_4,11,9.0 0
X_4,11,10.0 0
X_4,12,1.0 0
X_4,12,2.0 0
X_4,12,3.0 0
X_4,12,4.0 0
X_4,12,5.0 0
X_4,12,6.0 0
X_4,12,7.0 0
X_4,12,8.0 0
X_4,12,9.0 0
X_4,12,10.0 0
X_4,13,1.0 0
X_4,13,2.0 0
X_4,13,3.0 0
X_4,13,4.0 0
X_4,13,5.0 0
X_4,13,6.0 0
X_4,13,7.0 0
X_4,13,8.0 0
X_4,13,9.0 0
X_4,13,10.0 0
X_5,0,1.0 0
X_5,0,2.0 0
X_5,0,3.0 0
X_5,0,4.0 0
X_5,0,5.0 0
X_5,0,6.0 0
X_5,0,7.0 0
X_5,0,8.0 0
X_5,0,9.0 0
X_5,0,10.0 0
X_5,1,1.0 0
X_5,1,2.0 0
X_5,1,3.0 0
X_5,1,4.0 0
X_5,1,5.0 0
X_5,1,6.0 0
X_5,1,7.0 0
X_5,1,8.0 0
X_5,1,9.0 0
X_5,1,10.0 0
X_5,2,1.0 0
X_5,2,2.0 0
X_5,2,3.0 0
X_5,2,4.0 0
X_5,2,5.0 0
X_5,2,6.0 0
X_5,2,7.0 0
X_5,2,8.0 0
X_5,2,9.0 0
X_5,2,10.0 0
X_5,3,1.0 0
X_5,3,2.0 0
X_5,3,3.0 0
X_5,3,4.0 0
X_5,3,5.0 0
X_5,3,6.0 0
X_5,3,7.0 0
X_5,3,8.0 0
X_5,3,9.0 0
X_5,3,10.0 0
X_5,4,1.0 0
X_5,4,2.0 0
X_5,4,3.0 0
X_5,4,4.0 0
X_5,4,5.0 0
X_5,4,6.0 0
X_5,4,7.0 0
X_5,4,8.0 0
X_5,4,9.0 0
X_5,4,10.0 0
X_5,5,1.0 0
X_5,5,2.0 0
X_5,5,3.0 0
X_5,5,4.0 0
X_5,5,5.0 0
X_5,5,6.0 0
X_5,5,7.0 0
X_5,5,8.0 0
X_5,5,9.0 0
X_5,5,10.0 0
X_5,6,1.0 0
X_5,6,2.0 0
X_5,6,3.0 0
X_5,6,4.0 0
X_5,6,5.0 0
X_5,6,6.0 0
X_5,6,7.0 1
X_5,6,8.0 0
X_5,6,9.0 0
X_5,6,10.0 0
X_5,7,1.0 0
X_5,7,2.0 0
X_5,7,3.0 0
X_5,7,4.0 0
X_5,7,5.0 0
X_5,7,6.0 0
X_5,7,7.0 0
X_5,7,8.0 0
X_5,7,9.0 0
X_5,7,10.0 0
X_5,8,1.0 0
X_5,8,2.0 0
X_5,8,3.0 0
X_5,8,4.0 0
X_5,8,5.0 0
X_5,8,6.0 0
X_5,8,7.0 0
X_5,8,8.0 0
X_5,8,9.0 0
X_5,8,10.0 0
X_5,9,1.0 0
X_5,9,2.0 0
X_5,9,3.0 0
X_5,9,4.0 0
X_5,9,5.0 0
X_5,9,6.0 0
X_5,9,7.0 0
X_5,9,8.0 0
X_5,9,9.0 0
X_5,9,10.0 0
X_5,10,1.0 0
X_5,10,2.0 0
X_5,10,3.0 0
X_5,10,4.0 0
X_5,10,5.0 0
X_5,10,6.0 0
X_5,10,7.0 0
X_5,10,8.0 0
X_5,10,9.0 0
X_5,10,10.0 0
X_5,11,1.0 0
X_5,11,2.0 0
X_5,11,3.0 0
X_5,11,4.0 0
X_5,11,5.0 0
X_5,11,6.0 0
X_5,11,7.0 0
X_5,11,8.0 0
X_5,11,9.0 0
X_5,11,10.0 0
X_5,12,1.0 0
X_5,12,2.0 0
X_5,12,3.0 0
X_5,12,4.0 0
X_5,12,5.0 0
X_5,12,6.0 0
X_5,12,7.0 0
X_5,12,8.0 0
X_5,12,9.0 0
X_5,12,10.0 0
X_5,13,1.0 0
X_5,13,2.0 0
X_5,13,3.0 0
X_5,13,4.0 0
X_5,13,5.0 0
X_5,13,6.0 0
X_5,13,7.0 0
X_5,13,8.0 0
X_5,13,9.0 0
X_5,13,10.0 0
X_6,0,1.0 0
X_6,0,2.0 0
X_6,0,3.0 0
X_6,0,4.0 0
X_6,0,5.0 0
X_6,0,6.0 0
X_6,0,7.0 1
X_6,0,8.0 0
X_6,0,9.0 0
X_6,0,10.0 0
X_6,1,1.0 0
X_6,1,2.0 0
X_6,1,3.0 0
X_6,1,4.0 0
X_6,1,5.0 0
X_6,1,6.0 0
X_6,1,7.0 0
X_6,1,8.0 0
X_6,1,9.0 0
X_6,1,10.0 0
X_6,2,1.0 0
X_6,2,2.0 0
X_6,2,3.0 0
X_6,2,4.0 0
X_6,2,5.0 0
X_6,2,6.0 0
X_6,2,7.0 0
X_6,2,8.0 0
X_6,2,9.0 0
X_6,2,10.0 0
X_6,3,1.0 0
X_6,3,2.0 0
X_6,3,3.0 0
X_6,3,4.0 0
X_6,3,5.0 0
X_6,3,6.0 0
X_6,3,7.0 0
X_6,3,8.0 0
X_6,3,9.0 0
X_6,3,10.0 0
X_6,4,1.0 0
X_6,4,2.0 0
X_6,4,3.0 0
X_6,4,4.0 0
X_6,4,5.0 0
X_6,4,6.0 0
X_6,4,7.0 0
X_6,4,8.0 0
X_6,4,9.0 0
X_6,4,10.0 0
X_6,5,1.0 0
X_6,5,2.0 0
X_6,5,3.0 0
X_6,5,4.0 0
X_6,5,5.0 0
X_6,5,6.0 0
X_6,5,7.0 0
X_6,5,8.0 0
X_6,5,9.0 0
X_6,5,10.0 0
X_6,6,1.0 0
X_6,6,2.0 0
X_6,6,3.0 0
X_6,6,4.0 0
X_6,6,5.0 0
X_6,6,6.0 0
X_6,6,7.0 0
X_6,6,8.0 0
X_6,6,9.0 0
X_6,6,10.0 0
X_6,7,1.0 0
X_6,7,2.0 0
X_6,7,3.0 0
X_6,7,4.0 0
X_6,7,5.0 0
X_6,7,6.0 0
X_6,7,7.0 0
X_6,7,8.0 0
X_6,7,9.0 0
X_6,7,10.0 0
X_6,8,1.0 0
X_6,8,2.0 0
X_6,8,3.0 0
X_6,8,4.0 0
X_6,8,5.0 0
X_6,8,6.0 0
X_6,8,7.0 0
X_6,8,8.0 0
X_6,8,9.0 0
X_6,8,10.0 0
X_6,9,1.0 0
X_6,9,2.0 0
X_6,9,3.0 0
X_6,9,4.0 0
X_6,9,5.0 0
X_6,9,6.0 0
X_6,9,7.0 0
X_6,9,8.0 0
X_6,9,9.0 0
X_6,9,10.0 0
X_6,10,1.0 0
X_6,10,2.0 0
X_6,10,3.0 0
X_6,10,4.0 0
X_6,10,5.0 0
X_6,10,6.0 0
X_6,10,7.0 0
X_6,10,8.0 0
X_6,10,9.0 0
X_6,10,10.0 0
X_6,11,1.0 0
X_6,11,2.0 0
X_6,11,3.0 0
X_6,11,4.0 0
X_6,11,5.0 0
X_6,11,6.0 0
X_6,11,7.0 0
X_6,11,8.0 0
X_6,11,9.0 0
X_6,11,10.0 0
X_6,12,1.0 0
X_6,12,2.0 0
X_6,12,3.0 0
X_6,12,4.0 0
X_6,12,5.0 0
X_6,12,6.0 0
X_6,12,7.0 0
X_6,12,8.0 0
X_6,12,9.0 0
X_6,12,10.0 0
X_6,13,1.0 0
X_6,13,2.0 0
X_6,13,3.0 0
X_6,13,4.0 0
X_6,13,5.0 0
X_6,13,6.0 0
X_6,13,7.0 0
X_6,13,8.0 0
X_6,13,9.0 0
X_6,13,10.0 0
X_7,0,1.0 0
X_7,0,2.0 0
X_7,0,3.0 0
X_7,0,4.0 0
X_7,0,5.0 0
X_7,0,6.0 0
X_7,0,7.0 0
X_7,0,8.0 0
X_7,0,9.0 0
X_7,0,10.0 0
X_7,1,1.0 0
X_7,1,2.0 0
X_7,1,3.0 0
X_7,1,4.0 0
X_7,1,5.0 0
X_7,1,6.0 0
X_7,1,7.0 0
X_7,1,8.0 0
X_7,1,9.0 0
X_7,1,10.0 0
X_7,2,1.0 0
X_7,2,2.0 0
X_7,2,3.0 0
X_7,2,4.0 0
X_7,2,5.0 0
X_7,2,6.0 0
X_7,2,7.0 0
X_7,2,8.0 0
X_7,2,9.0 0
X_7,2,10.0 0
X_7,3,1.0 0
X_7,3,2.0 0
X_7,3,3.0 0
X_7,3,4.0 0
X_7,3,5.0 0
X_7,3,6.0 0
X_7,3,7.0 0
X_7,3,8.0 0
X_7,3,9.0 0
X_7,3,10.0 0
X_7,4,1.0 0
X_7,4,2.0 0
X_7,4,3.0 0
X_7,4,4.0 0
X_7,4,5.0 0
X_7,4,6.0 0
X_7,4,7.0 0
X_7,4,8.0 0
X_7,4,9.0 0
X_7,4,10.0 0
X_7,5,1.0 0
X_7,5,2.0 0
X_7,5,3.0 0
X_7,5,4.0 0
X_7,5,5.0 0
X_7,5,6.0 0
X_7,5,7.0 0
X_7,5,8.0 0
X_7,5,9.0 0
X_7,5,10.0 0
X_7,6,1.0 0
X_7,6,2.0 0
X_7,6,3.0 0
X_7,6,4.0 0
X_7,6,5.0 0
X_7,6,6.0 0
X_7,6,7.0 0
X_7,6,8.0 0
X_7,6,9.0 0
X_7,6,10.0 0
X_7,7,1.0 0
X_7,7,2.0 0
X_7,7,3.0 0
X_7,7,4.0 0
X_7,7,5.0 0
X_7,7,6.0 0
X_7,7,7.0 0
X_7,7,8.0 0
X_7,7,9.0 0
X_7,7,10.0 0
X_7,8,1.0 0
X_7,8,2.0 0
X_7,8,3.0 0
X_7,8,4.0 0
X_7,8,5.0 1
X_7,8,6.0 0
X_7,8,7.0 0
X_7,8,8.0 0
X_7,8,9.0 0
X_7,8,10.0 0
X_7,9,1.0 0
X_7,9,2.0 0
X_7,9,3.0 0
X_7,9,4.0 0
X_7,9,5.0 0
X_7,9,6.0 0
X_7,9,7.0 0
X_7,9,8.0 0
X_7,9,9.0 0
X_7,9,10.0 0
X_7,10,1.0 0
X_7,10,2.0 0
X_7,10,3.0 0
X_7,10,4.0 0
X_7,10,5.0 0
X_7,10,6.0 0
X_7,10,7.0 0
X_7,10,8.0 0
X_7,10,9.0 0
X_7,10,10.0 0
X_7,11,1.0 0
X_7,11,2.0 0
X_7,11,3.0 0
X_7,11,4.0 0
X_7,11,5.0 0
X_7,11,6.0 0
X_7,11,7.0 0
X_7,11,8.0 0
X_7,11,9.0 0
X_7,11,10.0 0
X_7,12,1.0 0
X_7,12,2.0 0
X_7,12,3.0 0
X_7,12,4.0 0
X_7,12,5.0 0
X_7,12,6.0 0
X_7,12,7.0 0
X_7,12,8.0 0
X_7,12,9.0 0
X_7,12,10.0 0
X_7,13,1.0 0
X_7,13,2.0 0
X_7,13,3.0 0
X_7,13,4.0 0
X_7,13,5.0 0
X_7,13,6.0 0
X_7,13,7.0 0
X_7,13,8.0 0
X_7,13,9.0 0
X_7,13,10.0 0
X_8,0,1.0 0
X_8,0,2.0 0
X_8,0,3.0 0
X_8,0,4.0 0
X_8,0,5.0 0
X_8,0,6.0 0
X_8,0,7.0 0
X_8,0,8.0 0
X_8,0,9.0 0
X_8,0,10.0 0
X_8,1,1.0 0
X_8,1,2.0 0
X_8,1,3.0 0
X_8,1,4.0 0
X_8,1,5.0 0
X_8,1,6.0 0
X_8,1,7.0 0
X_8,1,8.0 0
X_8,1,9.0 0
X_8,1,10.0 0
X_8,2,1.0 0
X_8,2,2.0 0
X_8,2,3.0 0
X_8,2,4.0 0
X_8,2,5.0 0
X_8,2,6.0 0
X_8,2,7.0 0
X_8,2,8.0 0
X_8,2,9.0 0
X_8,2,10.0 0
X_8,3,1.0 0
X_8,3,2.0 0
X_8,3,3.0 0
X_8,3,4.0 0
X_8,3,5.0 0
X_8,3,6.0 0
X_8,3,7.0 0
X_8,3,8.0 0
X_8,3,9.0 0
X_8,3,10.0 0
X_8,4,1.0 0
X_8,4,2.0 0
X_8,4,3.0 0
X_8,4,4.0 0
X_8,4,5.0 0
X_8,4,6.0 0
X_8,4,7.0 0
X_8,4,8.0 0
X_8,4,9.0 0
X_8,4,10.0 0
X_8,5,1.0 0
X_8,5,2.0 0
X_8,5,3.0 0
X_8,5,4.0 0
X_8,5,5.0 0
X_8,5,6.0 0
X_8,5,7.0 0
X_8,5,8.0 0
X_8,5,9.0 0
X_8,5,10.0 0
X_8,6,1.0 0
X_8,6,2.0 0
X_8,6,3.0 0
X_8,6,4.0 0
X_8,6,5.0 0
X_8,6,6.0 0
X_8,6,7.0 0
X_8,6,8.0 0
X_8,6,9.0 0
X_8,6,10.0 0
X_8,7,1.0 0
X_8,7,2.0 0
X_8,7,3.0 0
X_8,7,4.0 0
X_8,7,5.0 0
X_8,7,6.0 0
X_8,7,7.0 0
X_8,7,8.0 0
X_8,7,9.0 0
X_8,7,10.0 0
X_8,8,1.0 0
X_8,8,2.0 0
X_8,8,3.0 0
X_8,8,4.0 0
X_8,8,5.0 0
X_8,8,6.0 0
X_8,8,7.0 0
X_8,8,8.0 0
X_8,8,9.0 0
X_8,8,10.0 0
X_8,9,1.0 0
X_8,9,2.0 0
X_8,9,3.0 0
X_8,9,4.0 0
X_8,9,5.0 0
X_8,9,6.0 0
X_8,9,7.0 0
X_8,9,8.0 0
X_8,9,9.0 0
X_8,9,10.0 0
X_8,10,1.0 0
X_8,10,2.0 0
X_8,10,3.0 0
X_8,10,4.0 0
X_8,10,5.0 0
X_8,10,6.0 0
X_8,10,7.0 0
X_8,10,8.0 0
X_8,10,9.0 0
X_8,10,10.0 0
X_8,11,1.0 0
X_8,11,2.0 0
X_8,11,3.0 0
X_8,11,4.0 0
X_8,11,5.0 0
X_8,11,6.0 0
X_8,11,7.0 0
X_8,11,8.0 0
X_8,11,9.0 0
X_8,11,10.0 0
X_8,12,1.0 0
X_8,12,2.0 0
X_8,12,3.0 0
X_8,12,4.0 0
X_8,12,5.0 1
X_8,12,6.0 0
X_8,12,7.0 0
X_8,12,8.0 0
X_8,12,9.0 0
X_8,12,10.0 0
X_8,13,1.0 0
X_8,13,2.0 0
X_8,13,3.0 0
X_8,13,4.0 0
X_8,13,5.0 0
X_8,13,6.0 0
X_8,13,7.0 0
X_8,13,8.0 0
X_8,13,9.0 0
X_8,13,10.0 0
X_9,0,1.0 0
X_9,0,2.0 0
X_9,0,3.0 0
X_9,0,4.0 0
X_9,0,5.0 0
X_9,0,6.0 0
X_9,0,7.0 0
X_9,0,8.0 0
X_9,0,9.0 0
X_9,0,10.0 0
X_9,1,1.0 0
X_9,1,2.0 0
X_9,1,3.0 0
X_9,1,4.0 0
X_9,1,5.0 0
X_9,1,6.0 0
X_9,1,7.0 0
X_9,1,8.0 0
X_9,1,9.0 0
X_9,1,10.0 0
X_9,2,1.0 0
X_9,2,2.0 0
X_9,2,3.0 0
X_9,2,4.0 0
X_9,2,5.0 0
X_9,2,6.0 1
X_9,2,7.0 0
X_9,2,8.0 0
X_9,2,9.0 0
X_9,2,10.0 0
X_9,3,1.0 0
X_9,3,2.0 0
X_9,3,3.0 0
X_9,3,4.0 0
X_9,3,5.0 0
X_9,3,6.0 0
X_9,3,7.0 0
X_9,3,8.0 0
X_9,3,9.0 0
X_9,3,10.0 0
X_9,4,1.0 0
X_9,4,2.0 0
X_9,4,3.0 0
X_9,4,4.0 0
X_9,4,5.0 0
X_9,4,6.0 0
X_9,4,7.0 0
X_9,4,8.0 0
X_9,4,9.0 0
X_9,4,10.0 0
X_9,5,1.0 0
X_9,5,2.0 0
X_9,5,3.0 0
X_9,5,4.0 0
X_9,5,5.0 0
X_9,5,6.0 0
X_9,5,7.0 0
X_9,5,8.0 0
X_9,5,9.0 0
X_9,5,10.0 0
X_9,6,1.0 0
X_9,6,2.0 0
X_9,6,3.0 0
X_9,6,4.0 0
X_9,6,5.0 0
X_9,6,6.0 0
X_9,6,7.0 0
X_9,6,8.0 0
X_9,6,9.0 0
X_9,6,10.0 0
X_9,7,1.0 0
X_9,7,2.0 0
X_9,7,3.0 0
X_9,7,4.0 0
X_9,7,5.0 0
X_9,7,6.0 0
X_9,7,7.0 0
X_9,7,8.0 0
X_9,7,9.0 0
X_9,7,10.0 0
X_9,8,1.0 0
X_9,8,2.0 0
X_9,8,3.0 0
X_9,8,4.0 0
X_9,8,5.0 0
X_9,8,6.0 0
X_9,8,7.0 0
X_9,8,8.0 0
X_9,8,9.0 0
X_9,8,10.0 0
X_9,9,1.0 0
X_9,9,2.0 0
X_9,9,3.0 0
X_9,9,4.0 0
X_9,9,5.0 0
X_9,9,6.0 0
X_9,9,7.0 0
X_9,9,8.0 0
X_9,9,9.0 0
X_9,9,10.0 0
X_9,10,1.0 0
X_9,10,2.0 0
X_9,10,3.0 0
X_9,10,4.0 0
X_9,10,5.0 0
X_9,10,6.0 0
X_9,10,7.0 0
X_9,10,8.0 0
X_9,10,9.0 0
X_9,10,10.0 0
X_9,11,1.0 0
X_9,11,2.0 0
X_9,11,3.0 0
X_9,11,4.0 0
X_9,11,5.0 0
X_9,11,6.0 0
X_9,11,7.0 0
X_9,11,8.0 0
X_9,11,9.0 0
X_9,11,10.0 0
X_9,12,1.0 0
X_9,12,2.0 0
X_9,12,3.0 0
X_9,12,4.0 0
X_9,12,5.0 0
X_9,12,6.0 0
X_9,12,7.0 0
X_9,12,8.0 0
X_9,12,9.0 0
X_9,12,10.0 0
X_9,13,1.0 0
X_9,13,2.0 0
X_9,13,3.0 0
X_9,13,4.0 0
X_9,13,5.0 0
X_9,13,6.0 0
X_9,13,7.0 0
X_9,13,8.0 0
X_9,13,9.0 0
X_9,13,10.0 0
X_10,0,1.0 0
X_10,0,2.0 0
X_10,0,3.0 0
X_10,0,4.0 0
X_10,0,5.0 0
X_10,0,6.0 0
X_10,0,7.0 0
X_10,0,8.0 0
X_10,0,9.0 0
X_10,0,10.0 0
X_10,1,1.0 0
X_10,1,2.0 0
X_10,1,3.0 0
X_10,1,4.0 0
X_10,1,5.0 0
X_10,1,6.0 0
X_10,1,7.0 0
X_10,1,8.0 0
X_10,1,9.0 0
X_10,1,10.0 0
X_10,2,1.0 0
X_10,2,2.0 0
X_10,2,3.0 0
X_10,2,4.0 0
X_10,2,5.0 0
X_10,2,6.0 0
X_10,2,7.0 0
X_10,2,8.0 0
X_10,2,9.0 0
X_10,2,10.0 0
X_10,3,1.0 0
X_10,3,2.0 0
X_10,3,3.0 0
X_10,3,4.0 0
X_10,3,5.0 0
X_10,3,6.0 0
X_10,3,7.0 0
X_10,3,8.0 0
X_10,3,9.0 0
X_10,3,10.0 0
X_10,4,1.0 0
X_10,4,2.0 0
X_10,4,3.0 0
X_10,4,4.0 0
X_10,4,5.0 0
X_10,4,6.0 0
X_10,4,7.0 0
X_10,4,8.0 0
X_10,4,9.0 0
X_10,4,10.0 0
X_10,5,1.0 0
X_10,5,2.0 0
X_10,5,3.0 0
X_10,5,4.0 0
X_10,5,5.0 0
X_10,5,6.0 0
X_10,5,7.0 0
X_10,5,8.0 0
X_10,5,9.0 0
X_10,5,10.0 0
X_10,6,1.0 0
X_10,6,2.0 0
X_10,6,3.0 0
X_10,6,4.0 0
X_10,6,5.0 0
X_10,6,6.0 0
X_10,6,7.0 0
X_10,6,8.0 0
X_10,6,9.0 0
X_10,6,10.0 0
X_10,7,1.0 0
X_10,7,2.0 0
X_10,7,3.0 0
X_10,7,4.0 0
X_10,7,5.0 1
X_10,7,6.0 0
X_10,7,7.0 0
X_10,7,8.0 0
X_10,7,9.0 0
X_10,7,10.0 0
X_10,8,1.0 0
X_10,8,2.0 0
X_10,8,3.0 0
X_10,8,4.0 0
X_10,8,5.0 0
X_10,8,6.0 0
X_10,8,7.0 0
X_10,8,8.0 0
X_10,8,9.0 0
X_10,8,10.0 0
X_10,9,1.0 0
X_10,9,2.0 0
X_10,9,3.0 0
X_10,9,4.0 0
X_10,9,5.0 0
X_10,9,6.0 0
X_10,9,7.0 0
X_10,9,8.0 0
X_10,9,9.0 0
X_10,9,10.0 0
X_10,10,1.0 0
X_10,10,2.0 0
X_10,10,3.0 0
X_10,10,4.0 0
X_10,10,5.0 0
X_10,10,6.0 0
X_10,10,7.0 0
X_10,10,8.0 0
X_10,10,9.0 0
X_10,10,10.0 0
X_10,11,1.0 0
X_10,11,2.0 0
X_10,11,3.0 0
X_10,11,4.0 0
X_10,11,5.0 0
X_10,11,6.0 0
X_10,11,7.0 0
X_10,11,8.0 0
X_10,11,9.0 0
X_10,11,10.0 0
X_10,12,1.0 0
X_10,12,2.0 0
X_10,12,3.0 0
X_10,12,4.0 0
X_10,12,5.0 0
X_10,12,6.0 0
X_10,12,7.0 0
X_10,12,8.0 0
X_10,12,9.0 0
X_10,12,10.0 0
X_10,13,1.0 0
X_10,13,2.0 0
X_10,13,3.0 0
X_10,13,4.0 0
X_10,13,5.0 0
X_10,13,6.0 0
X_10,13,7.0 0
X_10,13,8.0 0
X_10,13,9.0 0
X_10,13,10.0 0
X_11,0,1.0 0
X_11,0,2.0 0
X_11,0,3.0 0
X_11,0,4.0 0
X_11,0,5.0 0
X_11,0,6.0 0
X_11,0,7.0 0
X_11,0,8.0 0
X_11,0,9.0 0
X_11,0,10.0 0
X_11,1,1.0 0
X_11,1,2.0 0
X_11,1,3.0 0
X_11,1,4.0 0
X_11,1,5.0 0
X_11,1,6.0 0
X_11,1,7.0 0
X_11,1,8.0 0
X_11,1,9.0 0
X_11,1,10.0 0
X_11,2,1.0 0
X_11,2,2.0 0
X_11,2,3.0 0
X_11,2,4.0 0
X_11,2,5.0 0
X_11,2,6.0 0
X_11,2,7.0 0
X_11,2,8.0 0
X_11,2,9.0 0
X_11,2,10.0 0
X_11,3,1.0 0
X_11,3,2.0 0
X_11,3,3.0 0
X_11,3,4.0 0
X_11,3,5.0 0
X_11,3,6.0 0
X_11,3,7.0 1
X_11,3,8.0 0
X_11,3,9.0 0
X_11,3,10.0 0
X_11,4,1.0 0
X_11,4,2.0 0
X_11,4,3.0 0
X_11,4,4.0 0
X_11,4,5.0 0
X_11,4,6.0 0
X_11,4,7.0 0
X_11,4,8.0 0
X_11,4,9.0 0
X_11,4,10.0 0
X_11,5,1.0 0
X_11,5,2.0 0
X_11,5,3.0 0
X_11,5,4.0 0
X_11,5,5.0 0
X_11,5,6.0 0
X_11,5,7.0 0
X_11,5,8.0 0
X_11,5,9.0 0
X_11,5,10.0 0
X_11,6,1.0 0
X_11,6,2.0 0
X_11,6,3.0 0
X_11,6,4.0 0
X_11,6,5.0 0
X_11,6,6.0 0
X_11,6,7.0 0
X_11,6,8.0 0
X_11,6,9.0 0
X_11,6,10.0 0
X_11,7,1.0 0
X_11,7,2.0 0
X_11,7,3.0 0
X_11,7,4.0 0
X_11,7,5.0 0
X_11,7,6.0 0
X_11,7,7.0 0
X_11,7,8.0 0
X_11,7,9.0 0
X_11,7,10.0 0
X_11,8,1.0 0
X_11,8,2.0 0
X_11,8,3.0 0
X_11,8,4.0 0
X_11,8,5.0 0
X_11,8,6.0 0
X_11,8,7.0 0
X_11,8,8.0 0
X_11,8,9.0 0
X_11,8,10.0 0
X_11,9,1.0 0
X_11,9,2.0 0
X_11,9,3.0 0
X_11,9,4.0 0
X_11,9,5.0 0
X_11,9,6.0 0
X_11,9,7.0 0
X_11,9,8.0 0
X_11,9,9.0 0
X_11,9,10.0 0
X_11,10,1.0 0
X_11,10,2.0 0
X_11,10,3.0 0
X_11,10,4.0 0
X_11,10,5.0 0
X_11,10,6.0 0
X_11,10,7.0 0
X_11,10,8.0 0
X_11,10,9.0 0
X_11,10,10.0 0
X_11,11,1.0 0
X_11,11,2.0 0
X_11,11,3.0 0
X_11,11,4.0 0
X_11,11,5.0 0
X_11,11,6.0 0
X_11,11,7.0 0
X_11,11,8.0 0
X_11,11,9.0 0
X_11,11,10.0 0
X_11,12,1.0 0
X_11,12,2.0 0
X_11,12,3.0 0
X_11,12,4.0 0
X_11,12,5.0 0
X_11,12,6.0 0
X_11,12,7.0 0
X_11,12,8.0 0
X_11,12,9.0 0
X_11,12,10.0 0
X_11,13,1.0 0
X_11,13,2.0 0
X_11,13,3.0 0
X_11,13,4.0 0
X_11,13,5.0 0
X_11,13,6.0 0
X_11,13,7.0 0
X_11,13,8.0 0
X_11,13,9.0 0
X_11,13,10.0 0
X_12,0,1.0 0
X_12,0,2.0 0
X_12,0,3.0 0
X_12,0,4.0 0
X_12,0,5.0 1
X_12,0,6.0 0
X_12,0,7.0 0
X_12,0,8.0 0
X_12,0,9.0 0
X_12,0,10.0 0
X_12,1,1.0 0
X_12,1,2.0 0
X_12,1,3.0 0
X_12,1,4.0 0
X_12,1,5.0 0
X_12,1,6.0 0
X_12,1,7.0 0
X_12,1,8.0 0
X_12,1,9.0 0
X_12,1,10.0 0
X_12,2,1.0 0
X_12,2,2.0 0
X_12,2,3.0 0
X_12,2,4.0 0
X_12,2,5.0 0
X_12,2,6.0 0
X_12,2,7.0 0
X_12,2,8.0 0
X_12,2,9.0 0
X_12,2,10.0 0
X_12,3,1.0 0
X_12,3,2.0 0
X_12,3,3.0 0
X_12,3,4.0 0
X_12,3,5.0 0
X_12,3,6.0 0
X_12,3,7.0 0
X_12,3,8.0 0
X_12,3,9.0 0
X_12,3,10.0 0
X_12,4,1.0 0
X_12,4,2.0 0
X_12,4,3.0 0
X_12,4,4.0 0
X_12,4,5.0 0
X_12,4,6.0 0
X_12,4,7.0 0
X_12,4,8.0 0
X_12,4,9.0 0
X_12,4,10.0 0
X_12,5,1.0 0
X_12,5,2.0 0
X_12,5,3.0 0
X_12,5,4.0 0
X_12,5,5.0 0
X_12,5,6.0 0
X_12,5,7.0 0
X_12,5,8.0 0
X_12,5,9.0 0
X_12,5,10.0 0
X_12,6,1.0 0
X_12,6,2.0 0
X_12,6,3.0 0
X_12,6,4.0 0
X_12,6,5.0 0
X_12,6,6.0 0
X_12,6,7.0 0
X_12,6,8.0 0
X_12,6,9.0 0
X_12,6,10.0 0
X_12,7,1.0 0
X_12,7,2.0 0
X_12,7,3.0 0
X_12,7,4.0 0
X_12,7,5.0 0
X_12,7,6.0 0
X_12,7,7.0 0
X_12,7,8.0 0
X_12,7,9.0 0
X_12,7,10.0 0
X_12,8,1.0 0
X_12,8,2.0 0
X_12,8,3.0 0
X_12,8,4.0 0
X_12,8,5.0 0
X_12,8,6.0 0
X_12,8,7.0 0
X_12,8,8.0 0
X_12,8,9.0 0
X_12,8,10.0 0
X_12,9,1.0 0
X_12,9,2.0 0
X_12,9,3.0 0
X_12,9,4.0 0
X_12,9,5.0 0
X_12,9,6.0 0
X_12,9,7.0 0
X_12,9,8.0 0
X_12,9,9.0 0
X_12,9,10.0 0
X_12,10,1.0 0
X_12,10,2.0 0
X_12,10,3.0 0
X_12,10,4.0 0
X_12,10,5.0 0
X_12,10,6.0 0
X_12,10,7.0 0
X_12,10,8.0 0
X_12,10,9.0 0
X_12,10,10.0 0
X_12,11,1.0 0
X_12,11,2.0 0
X_12,11,3.0 0
X_12,11,4.0 0
X_12,11,5.0 0
X_12,11,6.0 0
X_12,11,7.0 0
X_12,11,8.0 0
X_12,11,9.0 0
X_12,11,10.0 0
X_12,12,1.0 0
X_12,12,2.0 0
X_12,12,3.0 0
X_12,12,4.0 0
X_12,12,5.0 0
X_12,12,6.0 0
X_12,12,7.0 0
X_12,12,8.0 0
X_12,12,9.0 0
X_12,12,10.0 0
X_12,13,1.0 0
X_12,13,2.0 0
X_12,13,3.0 0
X_12,13,4.0 0
X_12,13,5.0 0
X_12,13,6.0 0
X_12,13,7.0 0
X_12,13,8.0 0
X_12,13,9.0 0
X_12,13,10.0 0
X_13,0,1.0 0
X_13,0,2.0 0
X_13,0,3.0 0
X_13,0,4.0 0
X_13,0,5.0 0
X_13,0,6.0 0
X_13,0,7.0 0
X_13,0,8.0 0
X_13,0,9.0 0
X_13,0,10.0 0
X_13,1,1.0 0
X_13,1,2.0 0
X_13,1,3.0 0
X_13,1,4.0 0
X_13,1,5.0 0
X_13,1,6.0 0
X_13,1,7.0 0
X_13,1,8.0 0
X_13,1,9.0 0
X_13,1,10.0 0
X_13,2,1.0 0
X_13,2,2.0 0
X_13,2,3.0 0
X_13,2,4.0 0
X_13,2,5.0 0
X_13,2,6.0 0
X_13,2,7.0 0
X_13,2,8.0 0
X_13,2,9.0 0
X_13,2,10.0 0
X_13,3,1.0 0
X_13,3,2.0 0
X_13,3,3.0 0
X_13,3,4.0 0
X_13,3,5.0 0
X_13,3,6.0 0
X_13,3,7.0 0
X_13,3,8.0 0
X_13,3,9.0 0
X_13,3,10.0 0
X_13,4,1.0 0
X_13,4,2.0 0
X_13,4,3.0 0
X_13,4,4.0 0
X_13,4,5.0 0
X_13,4,6.0 0
X_13,4,7.0 0
X_13,4,8.0 0
X_13,4,9.0 0
X_13,4,10.0 0
X_13,5,1.0 0
X_13,5,2.0 0
X_13,5,3.0 0
X_13,5,4.0 0
X_13,5,5.0 0
X_13,5,6.0 0
X_13,5,7.0 0
X_13,5,8.0 0
X_13,5,9.0 0
X_13,5,10.0 0
X_13,6,1.0 0
X_13,6,2.0 0
X_13,6,3.0 0
X_13,6,4.0 0
X_13,6,5.0 0
X_13,6,6.0 0
X_13,6,7.0 0
X_13,6,8.0 0
X_13,6,9.0 0
X_13,6,10.0 0
X_13,7,1.0 0
X_13,7,2.0 0
X_13,7,3.0 0
X_13,7,4.0 0
X_13,7,5.0 0
X_13,7,6.0 0
X_13,7,7.0 0
X_13,7,8.0 0
X_13,7,9.0 0
X_13,7,10.0 0
X_13,8,1.0 0
X_13,8,2.0 0
X_13,8,3.0 0
X_13,8,4.0 0
X_13,8,5.0 0
X_13,8,6.0 0
X_13,8,7.0 0
X_13,8,8.0 0
X_13,8,9.0 0
X_13,8,10.0 0
X_13,9,1.0 0
X_13,9,2.0 0
X_13,9,3.0 0
X_13,9,4.0 0
X_13,9,5.0 0
X_13,9,6.0 1
X_13,9,7.0 0
X_13,9,8.0 0
X_13,9,9.0 0
X_13,9,10.0 0
X_13,10,1.0 0
X_13,10,2.0 0
X_13,10,3.0 0
X_13,10,4.0 0
X_13,10,5.0 0
X_13,10,6.0 0
X_13,10,7.0 0
X_13,10,8.0 0
X_13,10,9.0 0
X_13,10,10.0 0
X_13,11,1.0 0
X_13,11,2.0 0
X_13,11,3.0 0
X_13,11,4.0 0
X_13,11,5.0 0
X_13,11,6.0 0
X_13,11,7.0 0
X_13,11,8.0 0
X_13,11,9.0 0
X_13,11,10.0 0
X_13,12,1.0 0
X_13,12,2.0 0
X_13,12,3.0 0
X_13,12,4.0 0
X_13,12,5.0 0
X_13,12,6.0 0
X_13,12,7.0 0
X_13,12,8.0 0
X_13,12,9.0 0
X_13,12,10.0 0
X_13,13,1.0 0
X_13,13,2.0 0
X_13,13,3.0 0
X_13,13,4.0 0
X_13,13,5.0 0
X_13,13,6.0 0
X_13,13,7.0 0
X_13,13,8.0 0
X_13,13,9.0 0
X_13,13,10.0 0
y^1.0 0
y^2.0 0
y^3.0 0
y^4.0 0
y^5.0 1
y^6.0 1
y^7.0 1
y^8.0 0
y^9.0 0
y^10.0 0
D_0,1.0 0
P_0,1.0 0
D_0,2.0 0
P_0,2.0 0
D_0,3.0 0
P_0,3.0 0
D_0,4.0 0
P_0,4.0 0
D_0,5.0 100
P_0,5.0 0
D_0,6.0 90
P_0,6.0 0
D_0,7.0 100
P_0,7.0 0
D_0,8.0 0
P_0,8.0 0
D_0,9.0 0
P_0,9.0 0
D_0,10.0 0
P_0,10.0 0
D_1,1.0 0
P_1,1.0 0
D_1,2.0 0
P_1,2.0 0
D_1,3.0 0
P_1,3.0 0
D_1,4.0 0
P_1,4.0 0
D_1,5.0 0
P_1,5.0 100
D_1,6.0 0
P_1,6.0 100
D_1,7.0 80
P_1,7.0 20
D_1,8.0 0
P_1,8.0 0
D_1,9.0 0
P_1,9.0 0
D_1,10.0 0
P_1,10.0 0
D_2,1.0 0
P_2,1.0 0
D_2,2.0 0
P_2,2.0 0
D_2,3.0 0
P_2,3.0 0
D_2,4.0 0
P_2,4.0 0
D_2,5.0 0
P_2,5.0 0
D_2,6.0 20
P_2,6.0 70
D_2,7.0 0
P_2,7.0 100
D_2,8.0 0
P_2,8.0 0
D_2,9.0 0
P_2,9.0 0
D_2,10.0 0
P_2,10.0 0
D_3,1.0 0
P_3,1.0 0
D_3,2.0 0
P_3,2.0 0
D_3,3.0 0
P_3,3.0 0
D_3,4.0 0
P_3,4.0 0
D_3,5.0 0
P_3,5.0 0
D_3,6.0 0
P_3,6.0 0
D_3,7.0 70
P_3,7.0 30
D_3,8.0 0
P_3,8.0 0
D_3,9.0 0
P_3,9.0 0
D_3,10.0 0
P_3,10.0 0
D_4,1.0 0
P_4,1.0 0
D_4,2.0 0
P_4,2.0 0
D_4,3.0 0
P_4,3.0 0
D_4,4.0 0
P_4,4.0 0
D_4,5.0 0
P_4,5.0 0
D_4,6.0 0
P_4,6.0 0
D_4,7.0 30
P_4,7.0 60
D_4,8.0 0
P_4,8.0 0
D_4,9.0 0
P_4,9.0 0
D_4,10.0 0
P_4,10.0 0
D_5,1.0 0
P_5,1.0 0
D_5,2.0 0
P_5,2.0 0
D_5,3.0 0
P_5,3.0 0
D_5,4.0 0
P_5,4.0 0
D_5,5.0 0
P_5,5.0 0
D_5,6.0 0
P_5,6.0 0
D_5,7.0 10
P_5,7.0 75
D_5,8.0 0
P_5,8.0 0
D_5,9.0 0
P_5,9.0 0
D_5,10.0 0
P_5,10.0 0
D_6,1.0 0
P_6,1.0 0
D_6,2.0 0
P_6,2.0 0
D_6,3.0 0
P_6,3.0 0
D_6,4.0 0
P_6,4.0 0
D_6,5.0 0
P_6,5.0 0
D_6,6.0 0
P_6,6.0 0
D_6,7.0 0
P_6,7.0 90
D_6,8.0 0
P_6,8.0 0
D_6,9.0 0
P_6,9.0 0
D_6,10.0 0
P_6,10.0 0
D_7,1.0 0
P_7,1.0 0
D_7,2.0 0
P_7,2.0 0
D_7,3.0 0
P_7,3.0 0
D_7,4.0 0
P_7,4.0 0
D_7,5.0 50
P_7,5.0 35
D_7,6.0 100
P_7,6.0 0
D_7,7.0 50
P_7,7.0 50
D_7,8.0 0
P_7,8.0 0
D_7,9.0 0
P_7,9.0 0
D_7,10.0 0
P_7,10.0 0
D_8,1.0 0
P_8,1.0 0
D_8,2.0 0
P_8,2.0 0
D_8,3.0 0
P_8,3.0 0
D_8,4.0 0
P_8,4.0 0
D_8,5.0 20
P_8,5.0 70
D_8,6.0 0
P_8,6.0 100
D_8,7.0 55
P_8,7.0 0
D_8,8.0 0
P_8,8.0 0
D_8,9.0 0
P_8,9.0 0
D_8,10.0 0
P_8,10.0 0
D_9,1.0 0
P_9,1.0 0
D_9,2.0 0
P_9,2.0 0
D_9,3.0 0
P_9,3.0 0
D_9,4.0 0
P_9,4.0 0
D_9,5.0 0
P_9,5.0 100
D_9,6.0 45
P_9,6.0 40
D_9,7.0 55
P_9,7.0 20
D_9,8.0 0
P_9,8.0 0
D_9,9.0 0
P_9,9.0 0
D_9,10.0 0
P_9,10.0 0
D_10,1.0 0
P_10,1.0 0
D_10,2.0 0
P_10,2.0 0
D_10,3.0 0
P_10,3.0 0
D_10,4.0 0
P_10,4.0 0
D_10,5.0 80
P_10,5.0 15
D_10,6.0 0
P_10,6.0 100
D_10,7.0 100
P_10,7.0 0
D_10,8.0 0
P_10,8.0 0
D_10,9.0 0
P_10,9.0 0
D_10,10.0 0
P_10,10.0 0
D_11,1.0 0
P_11,1.0 0
D_11,2.0 0
P_11,2.0 0
D_11,3.0 0
P_11,3.0 0
D_11,4.0 0
P_11,4.0 0
D_11,5.0 15
P_11,5.0 85
D_11,6.0 100
P_11,6.0 0
D_11,7.0 85
P_11,7.0 15
D_11,8.0 0
P_11,8.0 0
D_11,9.0 0
P_11,9.0 0
D_11,10.0 0
P_11,10.0 0
D_12,1.0 0
P_12,1.0 0
D_12,2.0 0
P_12,2.0 0
D_12,3.0 0
P_12,3.0 0
D_12,4.0 0
P_12,4.0 0
D_12,5.0 0
P_12,5.0 100
D_12,6.0 0
P_12,6.0 100
D_12,7.0 55
P_12,7.0 0
D_12,8.0 0
P_12,8.0 0
D_12,9.0 0
P_12,9.0 0
D_12,10.0 0
P_12,10.0 0
D_13,1.0 0
P_13,1.0 0
D_13,2.0 0
P_13,2.0 0
D_13,3.0 0
P_13,3.0 0
D_13,4.0 0
P_13,4.0 0
D_13,5.0 0
P_13,5.0 20
D_13,6.0 70
P_13,6.0 30
D_13,7.0 55
P_13,7.0 25
D_13,8.0 0
P_13,8.0 0
D_13,9.0 0
P_13,9.0 0
D_13,10.0 0
P_13,10.0 0
